(set-info :source |printed by MathSAT|)
(declare-fun |main::local_14@2| () (_ BitVec 32))
(declare-fun |A::a1__param__@2| () (_ BitVec 32))
(declare-fun |A::a2__param__@2| () (_ BitVec 32))
(declare-fun |A::a1@2| () (_ BitVec 32))
(declare-fun |A::a2@2| () (_ BitVec 32))
(declare-fun |A::a1__param__@3| () (_ BitVec 32))
(declare-fun |A::a2__param__@3| () (_ BitVec 32))
(declare-fun |A::iVar1@1| () (_ BitVec 32))
(declare-fun |A::__retval__@2| () (_ BitVec 32))
(declare-fun |A::iVar1@2| () (_ BitVec 32))
(declare-fun |A::__retval__@3| () (_ BitVec 32))
(declare-fun |A::a1@3| () (_ BitVec 32))
(declare-fun |A::a2@3| () (_ BitVec 32))
(declare-fun |A::__retval__@4| () (_ BitVec 32))
(declare-fun |A::a1__param__@6| () (_ BitVec 32))
(declare-fun |A::a2__param__@6| () (_ BitVec 32))
(declare-fun |A::a1@6| () (_ BitVec 32))
(declare-fun |A::a2@6| () (_ BitVec 32))
(declare-fun |A::a1__param__@7| () (_ BitVec 32))
(declare-fun |A::a2__param__@7| () (_ BitVec 32))
(declare-fun |A::a1@7| () (_ BitVec 32))
(declare-fun |A::a2@7| () (_ BitVec 32))
(declare-fun |A::iVar1@3| () (_ BitVec 32))
(declare-fun |A::__retval__@5| () (_ BitVec 32))
(assert (let ((.def_22 (= |A::a2__param__@2| |A::a2@2|)))(let ((.def_20 (= |A::a1__param__@2| |A::a1@2|)))(let ((.def_23 (and .def_20 .def_22)))(let ((.def_13 (= |main::local_14@2| (_ bv0 32))))(let ((.def_15 (ite .def_13 (_ bv1 32) (_ bv0 32))))(let ((.def_17 (= .def_15 |A::a2__param__@2|)))(let ((.def_12 (= |main::local_14@2| |A::a1__param__@2|)))(let ((.def_18 (and .def_12 .def_17)))(let ((.def_191 (and .def_18 .def_23)))(let ((.def_24 (= |A::a1@2| (_ bv0 32))))(let ((.def_27 (not .def_24)))(let ((.def_192 (and .def_27 .def_191)))(let ((.def_32 (= |A::a1@2| |A::a2__param__@3|)))(let ((.def_30 (= |A::a2@2| |A::a1__param__@3|)))(let ((.def_33 (and .def_30 .def_32)))(let ((.def_193 (and .def_33 .def_192)))(let ((.def_103 (= |A::a2__param__@3| |A::a2@3|)))(let ((.def_101 (= |A::a1__param__@3| |A::a1@3|)))(let ((.def_104 (and .def_101 .def_103)))(let ((.def_194 (and .def_104 .def_193)))(let ((.def_105 (= |A::a1@3| (_ bv0 32))))(let ((.def_195 (and .def_105 .def_194)))(let ((.def_36 (= |A::iVar1@1| |A::__retval__@2|)))(let ((.def_196 (and .def_36 .def_195)))(let ((.def_81 (= |A::iVar1@2| |A::__retval__@3|)))(let ((.def_197 (and .def_81 .def_196)))(let ((.def_159 (= .def_15 |A::a2__param__@6|)))(let ((.def_157 (= |main::local_14@2| |A::a1__param__@6|)))(let ((.def_160 (and .def_157 .def_159)))(let ((.def_198 (and .def_160 .def_197)))(let ((.def_164 (= |A::a2__param__@6| |A::a2@6|)))(let ((.def_162 (= |A::a1__param__@6| |A::a1@6|)))(let ((.def_165 (and .def_162 .def_164)))(let ((.def_199 (and .def_165 .def_198)))(let ((.def_166 (= |A::a1@6| (_ bv0 32))))(let ((.def_168 (not .def_166)))(let ((.def_200 (and .def_168 .def_199)))(let ((.def_173 (= |A::a1@6| |A::a2__param__@7|)))(let ((.def_171 (= |A::a2@6| |A::a1__param__@7|)))(let ((.def_174 (and .def_171 .def_173)))(let ((.def_201 (and .def_174 .def_200)))(let ((.def_178 (= |A::a2__param__@7| |A::a2@7|)))(let ((.def_176 (= |A::a1__param__@7| |A::a1@7|)))(let ((.def_179 (and .def_176 .def_178)))(let ((.def_202 (and .def_179 .def_201)))(let ((.def_180 (= |A::a1@7| (_ bv0 32))))(let ((.def_203 (and .def_180 .def_202)))(let ((.def_184 (= |A::__retval__@4| |A::iVar1@3|)))(let ((.def_204 (and .def_184 .def_203)))(let ((.def_187 (= |A::iVar1@3| |A::__retval__@5|)))(let ((.def_205 (and .def_187 .def_204)))(let ((.def_41 (not .def_13)))(let ((.def_206 (and .def_41 .def_205))).def_206))))))))))))))))))))))))))))))))))))))))))))))))))))))